NAME : 50_5_10.79772.tour
COMMENT : Cost = 0_79772
COMMENT : Found by LKH [Keld Helsgaun] Thu Sep 14 11:12:36 2017
TYPE : TOUR
DIMENSION : 55
TOUR_SECTION
1
43
7
19
20
51
50
22
16
42
44
54
39
40
38
12
2
6
52
3
8
4
55
10
5
41
11
21
15
14
13
36
34
35
48
49
47
46
53
33
37
30
32
31
29
28
24
23
25
26
27
18
17
45
9
-1
EOF
